35
75
52	2
50	4
49	5
48	4
47	3
46	4
45	2
44	1
43	5
42	3
41	2
40	4
39	1
38	2
37	8
36	4
35	6
34	3
32	2
31	2
30	1
29	1
28	3
27	3
26	1
25	2
24	1
23	4
21	1
20	2
19	5
18	4
17	3
16	1
15	1
